Reading model...
...model read.
creating competitive generators file...
...competitive generators recorded.
Loading data...
.. real-time data read.
Compiling instance...
...instance created.
Creating Offer Mitigation (model will solve as dispatch if TRUE)...
NOTE: storage offers will not be mitigated
...storage offer mitigation file created
Converting model to MPEC...
...converted
NOTE: initial MIP solve with only storage competitive to get feasible solution
Solving...

Welcome to IBM(R) ILOG(R) CPLEX(R) Interactive Optimizer 12.10.0.0
  with Simplex, Mixed Integer & Barrier Optimizers
5725-A06 5725-A29 5724-Y48 5724-Y49 5724-Y54 5724-Y55 5655-Y21
Copyright IBM Corp. 1988, 2019.  All Rights Reserved.

Type 'help' for a list of available commands.
Type 'help' followed by a command name for more
information on commands.

CPLEX> Logfile 'cplex.log' closed.
Logfile 'C:\Users\wenmi\Desktop\competitiveMPEC\logs\tmpz9_zhi8o.cplex.log' open.
CPLEX> New value for parallel optimization mode: -1
CPLEX> New value for mixed integer optimality gap tolerance: 0.05
CPLEX> New value for deterministic time limit in ticks: 100000
CPLEX> Problem 'C:\Users\wenmi\Desktop\competitiveMPEC\logs\tmpa1lui9o7.pyomo.lp' read.
Read time = 0.31 sec. (27.43 ticks)
CPLEX> Problem name         : C:\Users\wenmi\Desktop\competitiveMPEC\logs\tmpa1lui9o7.pyomo.lp
Objective sense      : Maximize
Variables            :  107779  [Nneg: 1,  Box: 44054,  Free: 8928,
                                 Binary: 54796]
Objective nonzeros   :   18538
Linear constraints   :  246995  [Less: 82866,  Greater: 118424,  Equal: 45705]
  Nonzeros           :  581845
  RHS nonzeros       :  135608

Variables            : Min LB: -5000.000        Max UB: 1000000.       
Objective nonzeros   : Min   : 0.008333333      Max   : 2500.000       
Linear constraints   :
  Nonzeros           : Min   : 0.008333333      Max   : 1000000.       
  RHS nonzeros       : Min   : 0.008333333      Max   : 1000000.       
CPLEX> Version identifier: 12.10.0.0 | 2019-11-26 | 843d4de2ae
CPXPARAM_Parallel                                -1
CPXPARAM_DetTimeLimit                            100000
CPXPARAM_MIP_Tolerances_MIPGap                   0.050000000000000003
Tried aggregator 2 times.
MIP Presolve eliminated 176437 rows and 36934 columns.
MIP Presolve added 7084 rows and 0 columns.
MIP Presolve modified 50918 coefficients.
Aggregator did 25929 substitutions.
Reduced MIP has 51713 rows, 44061 columns, and 142019 nonzeros.
Reduced MIP has 17420 binaries, 0 generals, 0 SOSs, and 0 indicators.
Presolve time = 0.30 sec. (291.67 ticks)
Probing fixed 741 vars, tightened 8065 bounds.
Probing time = 0.08 sec. (16.63 ticks)
Tried aggregator 2 times.
Detecting symmetries...
MIP Presolve eliminated 1673 rows and 1488 columns.
MIP Presolve modified 6523 coefficients.
Aggregator did 96 substitutions.
Reduced MIP has 49944 rows, 42477 columns, and 136869 nonzeros.
Reduced MIP has 16679 binaries, 0 generals, 0 SOSs, and 0 indicators.
Presolve time = 0.16 sec. (248.76 ticks)
Probing fixed 1 vars, tightened 206 bounds.
Probing time = 0.20 sec. (23.97 ticks)
Clique table members: 89038.
MIP emphasis: balance optimality and feasibility.
MIP search method: dynamic search.
Parallel mode: opportunistic, using up to 16 threads.
Root relaxation solution time = 0.73 sec. (2116.97 ticks)

        Nodes                                         Cuts/
   Node  Left     Objective  IInf  Best Integer    Best Bound    ItCnt     Gap

      0     0     1792.3345   226                   1792.3345    10595         
      0     0     1792.3346   226                    Cuts: 65    10623         
      0     0     1792.0228   226                    Cuts: 15    10639         
      0     0     1789.2129   226                    Cuts: 21    10657         
      0     0     1752.4809   226                    Cuts: 38    10684         
      0     0     1728.4351   226                    Cuts: 17    10699         
      0     0     1728.1788   226                    Cuts: 23    10718         
      0     0     1727.7142   226                     Cuts: 5    10722         
      0     0     1727.5859   226                     Cuts: 3    10732         
      0     0     1727.5859   226                    Cuts: 12    10741         
      0    14      130.7437    16                    819.6713    11152         
Elapsed time = 8.83 sec. (10584.86 ticks, tree = 0.02 MB, solutions = 0)
    136    58      -74.0204    11                    548.3782    11624         
*   198    45      integral     0       46.9976      548.3782    11581     --- 
    260    52    -1006.6681    13       46.9976      548.3782    11652     --- 
    400    28      129.3736    11       46.9976      151.1800    14218  221.68%
    496    28       80.7086     9       46.9976      151.1800    13924  221.68%

Clique cuts applied:  2
Cover cuts applied:  9
Implied bound cuts applied:  9
Flow cuts applied:  60
Mixed integer rounding cuts applied:  25
Gomory fractional cuts applied:  15

Root node processing (before b&c):
  Real time             =    7.56 sec. (10473.50 ticks)
Parallel b&c, 16 threads:
  Real time             =    4.86 sec. (1223.00 ticks)
  Sync time (average)   =    0.58 sec.
  Wait time (average)   =    0.00 sec.
                          ------------
Total (root+branch&cut) =   12.42 sec. (11696.51 ticks)

Solution pool: 1 solution saved.

MIP - Integer optimal, tolerance (0.05/1e-06):  Objective =  4.6997630707e+01
Current MIP best bound =  4.8996479649e+01 (gap = 1.99885, 4.25%)
Solution time =   12.42 sec.  Iterations = 15454  Nodes = 509 (2)
Deterministic time = 11696.81 ticks  (941.62 ticks/sec)

CPLEX> Incumbent solution written to file 'C:\Users\wenmi\Desktop\competitiveMPEC\logs\tmpmo41v15s.cplex.sol'.
CPLEX> NOTE: no warmstart specified for MIP iteration, default behavior is true
NOTE: resolving with all competitive generators using storage-only solution to warmstart
Solving...

Welcome to IBM(R) ILOG(R) CPLEX(R) Interactive Optimizer 12.10.0.0
  with Simplex, Mixed Integer & Barrier Optimizers
5725-A06 5725-A29 5724-Y48 5724-Y49 5724-Y54 5724-Y55 5655-Y21
Copyright IBM Corp. 1988, 2019.  All Rights Reserved.

Type 'help' for a list of available commands.
Type 'help' followed by a command name for more
information on commands.

CPLEX> Logfile 'cplex.log' closed.
Logfile 'C:\Users\wenmi\Desktop\competitiveMPEC\logs\tmp4dk1rp89.cplex.log' open.
CPLEX> New value for parallel optimization mode: -1
CPLEX> New value for mixed integer optimality gap tolerance: 0.05
CPLEX> New value for deterministic time limit in ticks: 100000
CPLEX> Problem 'C:\Users\wenmi\Desktop\competitiveMPEC\logs\tmprrlcjtpp.pyomo.lp' read.
Read time = 0.31 sec. (27.47 ticks)
CPLEX> MIP start file 'C:\Users\wenmi\Desktop\competitiveMPEC\logs\tmp7e58545b.cplex.mst' read.
CPLEX> Problem name         : C:\Users\wenmi\Desktop\competitiveMPEC\logs\tmprrlcjtpp.pyomo.lp
Objective sense      : Maximize
Variables            :  109219  [Nneg: 1,  Box: 45494,  Free: 8928,
                                 Binary: 54796]
Objective nonzeros   :   19930
Linear constraints   :  246995  [Less: 82866,  Greater: 118424,  Equal: 45705]
  Nonzeros           :  581845
  RHS nonzeros       :  135608

Variables            : Min LB: -5000.000        Max UB: 1000000.       
Objective nonzeros   : Min   : 0.008333333      Max   : 2500.000       
Linear constraints   :
  Nonzeros           : Min   : 0.008333333      Max   : 1000000.       
  RHS nonzeros       : Min   : 0.008333333      Max   : 1000000.       
CPLEX> Version identifier: 12.10.0.0 | 2019-11-26 | 843d4de2ae
CPXPARAM_Parallel                                -1
CPXPARAM_DetTimeLimit                            100000
CPXPARAM_MIP_Tolerances_MIPGap                   0.050000000000000003
1 of 1 MIP starts provided solutions.
MIP start 'm1' defined initial solution with objective 46.9976.
Tried aggregator 2 times.
MIP Presolve eliminated 176437 rows and 38374 columns.
MIP Presolve added 7084 rows and 0 columns.
MIP Presolve modified 50918 coefficients.
Aggregator did 25929 substitutions.
Reduced MIP has 51713 rows, 44061 columns, and 142019 nonzeros.
Reduced MIP has 17420 binaries, 0 generals, 0 SOSs, and 0 indicators.
Presolve time = 0.30 sec. (292.28 ticks)
Probing fixed 741 vars, tightened 8065 bounds.
Probing time = 0.09 sec. (16.63 ticks)
Tried aggregator 2 times.
Detecting symmetries...
MIP Presolve eliminated 1673 rows and 1488 columns.
MIP Presolve modified 6523 coefficients.
Aggregator did 96 substitutions.
Reduced MIP has 49944 rows, 42477 columns, and 136869 nonzeros.
Reduced MIP has 16679 binaries, 0 generals, 0 SOSs, and 0 indicators.
Presolve time = 0.16 sec. (248.77 ticks)
Probing fixed 1 vars, tightened 211 bounds.
Probing time = 0.16 sec. (19.89 ticks)
Clique table members: 88396.
MIP emphasis: balance optimality and feasibility.
MIP search method: dynamic search.
Parallel mode: opportunistic, using up to 16 threads.
Root relaxation solution time = 0.89 sec. (2535.73 ticks)

        Nodes                                         Cuts/
   Node  Left     Objective  IInf  Best Integer    Best Bound    ItCnt     Gap

*     0+    0                           46.9976   1.42248e+07              --- 
      0     0    26281.4140   678       46.9976    26281.4140    13058     --- 
*     0+    0                           46.9977    26281.4140              --- 
      0     0    25819.7622   678       46.9977     Cuts: 478    13722     --- 
      0     0    24282.8927   678       46.9977    Cuts: 1392    14653     --- 
      0     0    24110.3702   678       46.9977     Cuts: 618    15041     --- 
      0     0    23965.7328   678       46.9977     Cuts: 602    15501     --- 
      0     0    23855.5196   678       46.9977     Cuts: 307    15698     --- 
      0     0    23809.8624   678       46.9977     Cuts: 219    15759     --- 
      0     0    23785.7355   678       46.9977      Cuts: 98    15847     --- 
      0     0    23764.1713   678       46.9977      Cuts: 50    15894     --- 
      0     0    23760.2068   678       46.9977     Cuts: 140    15967     --- 
      0     0    23758.5498   678       46.9977      Cuts: 74    15999     --- 
      0     0    23755.9352   678       46.9977      Cuts: 47    16061     --- 
      0     0    23736.8454   678       46.9977      Cuts: 23    16104     --- 
      0     0    23720.9032   678       46.9977      Cuts: 28    16166     --- 
      0     0    23714.8416   678       46.9977      Cuts: 49    16217     --- 
      0     0    23705.1870   678       46.9977      Cuts: 16    16247     --- 
      0     0    23705.1383   678       46.9977      Cuts: 24    16258     --- 
      0     8    infeasible             46.9977    23491.5980    17041     --- 
Elapsed time = 8.50 sec. (9748.64 ticks, tree = 0.02 MB, solutions = 2)
     78    38    16004.8178   447       46.9977    19928.3830    22155     --- 
    218    47    14737.3344   279       46.9977    19928.3830    22422     --- 
    365    53    16175.1006   356       46.9977    19905.0886    22752     --- 
    502   222    13234.9717   256       46.9977    19905.0886    27444     --- 
    666   310     7124.8022   272       46.9977    19905.0886    29657     --- 
    861   598    12960.8178   308       46.9977    19905.0886    37394     --- 
   1032   699     8869.9444   185       46.9977    19905.0886    38837     --- 
   1208   582     9349.2977   220       46.9977    19905.0886    36627     --- 
   1380  1054     5184.9026   197       46.9977    19905.0886    44189     --- 
   2026  1483     9937.6974   128       46.9977    19905.0886    49417     --- 
Elapsed time = 25.09 sec. (12855.73 ticks, tree = 19.46 MB, solutions = 2)
   2549  2096     4490.0612   111       46.9977    19905.0886    63238     --- 
   3047  2595     3347.5468    43       46.9977    19905.0886    71247     --- 
   3630  2700     4355.8944    87       46.9977    19386.3580    74969     --- 
   4181  3252    10071.2201   244       46.9977    19087.9119    88235     --- 
   4693  3375     1521.9793    36       46.9977    19076.8385    90288     --- 

Performing restart 1

Repeating presolve.
Tried aggregator 3 times.
MIP Presolve eliminated 1500 rows and 1360 columns.
MIP Presolve modified 56279 coefficients.
Aggregator did 368 substitutions.
Reduced MIP has 48076 rows, 40749 columns, and 130630 nonzeros.
Reduced MIP has 16095 binaries, 0 generals, 0 SOSs, and 0 indicators.
Presolve time = 0.17 sec. (165.48 ticks)
Tried aggregator 2 times.
MIP Presolve eliminated 853 rows and 698 columns.
MIP Presolve modified 21220 coefficients.
Aggregator did 4 substitutions.
Reduced MIP has 47219 rows, 40047 columns, and 128218 nonzeros.
Reduced MIP has 15746 binaries, 0 generals, 0 SOSs, and 0 indicators.
Presolve time = 0.09 sec. (85.76 ticks)
Tried aggregator 1 time.
MIP Presolve modified 15048 coefficients.
Reduced MIP has 47219 rows, 40047 columns, and 128218 nonzeros.
Reduced MIP has 15746 binaries, 0 generals, 0 SOSs, and 0 indicators.
Presolve time = 0.13 sec. (131.74 ticks)
Represolve time = 1.20 sec. (651.07 ticks)
   4776     0    12659.3274   729       46.9977    Cuts: 1022   120640     --- 
   4776     0    12623.1877   729       46.9977     Cuts: 302   120949     --- 
   4776     0    12621.6116   729       46.9977     Cuts: 103   121048     --- 
   4776     0    12618.8498   729       46.9977     Cuts: 115   121114     --- 
   4776     0    12618.5143   729       46.9977     Cuts: 104   121179     --- 
   4776     0    12615.2380   729       46.9977      Cuts: 49   121219     --- 
   4776     0    12613.0121   729       46.9977      Cuts: 87   121261     --- 
   4776     0    12612.4688   729       46.9977      Cuts: 92   121299     --- 
   4776     0    12612.2207   729       46.9977      Cuts: 23   121317     --- 
   4776     0    12608.0292   729       46.9977      Cuts: 25   121364     --- 
   4776     0    12578.0020   729       46.9977     Cuts: 122   121497     --- 
   4776     0    12575.0457   729       46.9977      Cuts: 55   121570     --- 
   4776     0    12572.6338   729       46.9977      Cuts: 89   121618     --- 
   4776     0    12570.9202   729       46.9977      Cuts: 88   121686     --- 
   4776     0    12570.0623   729       46.9977     Cuts: 130   121746     --- 
   4776     0    12568.1051   729       46.9977     Cuts: 107   121790     --- 
   4776     0    12567.9688   729       46.9977      Cuts: 49   121827     --- 
   4776     0    12566.8823   729       46.9977     Cuts: 140   121912     --- 
   4776     0    12565.7529   729       46.9977     Cuts: 115   121950     --- 
   4776     0    12565.7474   729       46.9977     Cuts: 146   121995     --- 
   4776     0    12565.2975   729       46.9977     Cuts: 387   122108     --- 
   4776     0    12564.8998   729       46.9977     Cuts: 214   122230     --- 
   4776     3        cutoff             46.9977    10055.5502   123039     --- 
   4797     5     8776.8152   319       46.9977     9201.9523   123183     --- 
   4866    33     7166.0025   187       46.9977     9146.7110   126672     --- 
   4998    33     2613.4862   299       46.9977     9146.7110   127533     --- 
   5248    32     2237.1667   276       46.9977     9146.7110   129570     --- 
Elapsed time = 88.20 sec. (37601.71 ticks, tree = 0.40 MB, solutions = 2)
   5534    43      869.8687   284       46.9977     9146.7110   127625     --- 
   5806   264     5915.4712   168       46.9977     9146.7110   150650     --- 
   6174   296     6814.6022   140       46.9977     9073.1131   153310     --- 
   6552   327     7819.9077   194       46.9977     9032.9643   153958     --- 
   7011   531     7429.3452   279       46.9977     9032.9643   168586     --- 
   7578   596        cutoff             46.9977     9032.9643   170352     --- 
   8171  1471     6226.5407   181       46.9977     9007.9831   215561     --- 
   8789  1298     4476.3951   167       46.9977     9007.9831   205367     --- 
   9386  2112     5157.0677   165       46.9977     8611.7951   241855     --- 
   9844  1562     6600.5688   179       46.9977     8611.7951   221089     --- 
Elapsed time = 139.39 sec. (47157.08 ticks, tree = 20.99 MB, solutions = 2)
  10300  2544     6264.2156   183       46.9977     8611.7951   267146     --- 
  10688  3246     4498.7190   179       46.9977     8611.7951   295681     --- 
  11008  2326     4987.0704   179       46.9977     7973.9741   253491     --- 
  11244  3977     4964.3524    75       46.9977     7900.9168   316971     --- 
  11564  3696     5186.0302   213       46.9977     7900.9168   311248     --- 
  12009  3637     6159.5647   184       46.9977     7849.6325   310128     --- 
  12465  4040     5721.5526   205       46.9977     7849.6325   319577     --- 
  12998  4076     3891.6148   117       46.9977     7847.3710   320448     --- 
  13423  4355     6317.1281   168       46.9977     7799.2869   338189     --- 
  13851  4495     5137.5862   137       46.9977     7416.9248   345034     --- 
Elapsed time = 184.47 sec. (56711.85 ticks, tree = 111.28 MB, solutions = 2)
  14339  5327     3740.4156   115       46.9977     7416.9248   378006     --- 
  14856  6193     5086.1371   122       46.9977     7416.9248   411129     --- 
  15322  5644        cutoff             46.9977     7416.9248   391024     --- 
  15742  5603     5218.9616   142       46.9977     7314.9048   389907     --- 
  16094  6031     4555.5384    75       46.9977     7200.8649   401232     --- 
  16440  6697     6695.8751   195       46.9977     7064.7133   433026     --- 
  16925  6997     5279.4673   210       46.9977     7064.7133   445802     --- 
  17423  7716        cutoff             46.9977     7020.3288   466322     --- 
  17949  7367     5340.9105   121       46.9977     7009.4582   456746     --- 
  18459  7491        cutoff             46.9977     7009.4582   460041     --- 
Elapsed time = 233.06 sec. (66267.74 ticks, tree = 158.49 MB, solutions = 2)
  19042  7781     1835.9712    95       46.9977     7002.1277   468112     --- 
  19622  8267     6950.1997   146       46.9977     7002.1277   481254     --- 
  20253  8408     5737.2944   145       46.9977     6991.4731   486215     --- 
  20814  8700     6356.1290   117       46.9977     6983.9690   495325     --- 
  21402  9240     6631.0086   163       46.9977     6983.9690   514073     --- 
  21978  9422     6694.0231   145       46.9977     6965.1248   521516     --- 
  22496  9673        cutoff             46.9977     6965.1248   530283     --- 
  23023 11106     4941.4465   132       46.9977     6944.8824   575052     --- 
  23533 10499     5047.4839   119       46.9977     6944.8824   555869     --- 
  24074 11164     4245.6109   119       46.9977     6944.8824   576693     --- 
Elapsed time = 283.72 sec. (75818.57 ticks, tree = 215.98 MB, solutions = 2)
  24560 11879     4791.7726   117       46.9977     6927.9856   602411     --- 
  25120 11648     4952.0688   119       46.9977     6927.9856   594983     --- 
  25681 11675        cutoff             46.9977     6922.2013   594773     --- 
  26292 14401     5057.3699   152       46.9977     6905.0766   697798     --- 
  26881 12688     4874.4953   113       46.9977     6905.0766   631970     --- 
  27521 14189        cutoff             46.9977     6885.6369   691475     --- 
  28068 13147     5272.6610    84       46.9977     6885.6369   651032     --- 
  28626 14949     4878.3456   130       46.9977     6876.9807   720214     --- 
  29286 13994     6138.7845   182       46.9977     6876.9807   682971     --- 
  29915 13721     5127.8164   148       46.9977     6876.6263   675420     --- 
Elapsed time = 335.38 sec. (85373.17 ticks, tree = 254.33 MB, solutions = 2)
  30531 14600        cutoff             46.9977     6876.6263   705634     --- 
  31205 14323     5108.9685   125       46.9977     6872.3782   696975     --- 
  31739 15211     2182.4421   117       46.9977     6872.3782   732194     --- 
  32354 16600     4919.0015   134       46.9977     6845.5240   794050     --- 
  32899 15305        cutoff             46.9977     6845.5240   737393     --- 
  33398 15639     4334.4442   137       46.9977     6835.8047   751997     --- 
  33854 17065    infeasible             46.9977     6835.8047   815676     --- 
  34355 18111     5326.8361   163       46.9977     6835.8047   856848     --- 
  34834 16416    infeasible             46.9977     6835.8047   786480     --- 
  35324 16763     2989.9519   158       46.9977     6835.8047   802030     --- 
Elapsed time = 367.16 sec. (94923.45 ticks, tree = 301.18 MB, solutions = 2)
  35813 17739      455.3854   137       46.9977     6835.8047   839228     --- 
  36213 18199     6021.0477   151       46.9977     6835.8047   860377     --- 
  36575 17113     5614.2039   133       46.9977     6835.8047   815900     --- 
  36839 17898     5965.8350   149       46.9977     6835.8047   846556     --- 
  37001 17930     6295.3378   138       46.9977     6835.8047   847485     --- 

GUB cover cuts applied:  2
Clique cuts applied:  64
Cover cuts applied:  22
Implied bound cuts applied:  243
Flow cuts applied:  814
Mixed integer rounding cuts applied:  303
Lift and project cuts applied:  9
Gomory fractional cuts applied:  18

Root node processing (before b&c):
  Real time             =    7.64 sec. (9731.66 ticks)
Parallel b&c, 16 threads:
  Real time             =  362.27 sec. (90322.23 ticks)
  Sync time (average)   =    5.29 sec.
  Wait time (average)   =    0.07 sec.
                          ------------
Total (root+branch&cut) =  369.91 sec. (100053.88 ticks)

Solution pool: 2 solutions saved.

MIP - Deterministic time limit exceeded, integer feasible:  Objective =  4.6997671447e+01
Current MIP best bound =  6.7664658733e+03 (gap = 6719.47, 1.4e+04%)
Solution time =  369.91 sec.  Iterations = 943204  Nodes = 37062 (20066)
Deterministic time = 100054.20 ticks  (270.48 ticks/sec)

CPLEX> Incumbent solution written to file 'C:\Users\wenmi\Desktop\competitiveMPEC\logs\tmpq1ql0cs1.cplex.sol'.
CPLEX> Exporting results... 
